% seed = 8230986

mint = 50;
% maxt = 108;

nActs = 22;
dur = [0,1,7,8,2,2,9,6,3,9,4,6,2,1,8,1,5,8,9,9,8,0];

nSkills = 4;
sreq = [| 0,0,0,0,
	| 3,3,2,1,
	| 3,1,2,1,
	| 3,1,3,2,
	| 2,3,3,1,
	| 2,2,2,2,
	| 2,2,3,2,
	| 1,1,3,2,
	| 2,3,1,3,
	| 3,1,2,3,
	| 1,3,2,2,
	| 2,1,2,2,
	| 2,3,3,1,
	| 3,1,1,2,
	| 2,3,3,2,
	| 3,1,1,3,
	| 3,1,3,1,
	| 1,3,2,1,
	| 1,3,1,2,
	| 2,2,2,1,
	| 1,1,3,1,
	| 0,0,0,0, |];

nResources = 25;
mastery = [| true,false,false,false,
	| true,false,false,true,
	| false,false,false,true,
	| false,false,true,true,
	| true,false,false,false,
	| false,false,true,false,
	| true,true,false,true,
	| true,true,false,true,
	| false,false,false,true,
	| true,false,false,false,
	| false,false,true,true,
	| true,true,true,false,
	| true,false,true,false,
	| true,false,false,true,
	| true,true,false,false,
	| true,true,true,false,
	| false,false,true,true,
	| true,true,true,false,
	| false,false,true,false,
	| false,false,false,true,
	| true,true,false,true,
	| false,false,false,true,
	| true,true,false,false,
	| true,false,true,true,
	| true,true,false,true, |];

nPrecs = 37;
pred = [1,1,1,2,2,2,3,4,4,4,5,6,6,6,7,8,8,9,9,10,10,10,11,12,12,13,14,14,15,15,16,17,17,18,19,20,21];
succ = [2,3,4,9,20,7,14,12,5,6,8,17,18,11,14,10,11,19,11,13,15,16,21,14,16,17,17,15,18,21,18,19,21,19,22,22,22];

nUnrels = 96;
unpred = [2,2,2,2,2,2,2,2,2,3,3,3,3,3,3,3,3,3,3,3,3,4,4,4,5,5,5,5,5,5,6,6,6,6,6,6,6,6,6,6,7,7,7,7,7,7,7,7,8,8,8,8,9,9,9,9,9,9,9,9,9,10,10,10,10,11,11,11,11,11,11,11,11,11,12,12,13,13,13,13,13,14,14,15,15,15,16,16,16,17,17,18,18,19,19,20];
unsucc = [3,4,5,6,8,10,12,13,16,4,5,6,7,8,9,10,11,12,13,16,20,7,9,20,6,7,9,12,14,20,7,8,9,10,12,13,14,15,16,20,8,9,10,11,12,13,16,20,9,12,14,20,10,12,13,14,15,16,17,18,20,11,12,14,20,12,13,14,15,16,17,18,19,20,13,20,14,15,16,18,20,16,20,16,17,20,17,20,21,18,20,20,21,20,21,21];

USEFUL_RES = [{},
	{1,2,3,4,5,6,7,8,9,10,11,12,13,14,15,16,17,18,19,20,21,22,23,24,25},
	{1,2,3,4,5,6,7,8,9,10,11,12,13,14,15,16,17,18,19,20,21,22,23,24,25},
	{1,2,3,4,5,6,7,8,9,10,11,12,13,14,15,16,17,18,19,20,21,22,23,24,25},
	{1,2,3,4,5,6,7,8,9,10,11,12,13,14,15,16,17,18,19,20,21,22,23,24,25},
	{1,2,3,4,5,6,7,8,9,10,11,12,13,14,15,16,17,18,19,20,21,22,23,24,25},
	{1,2,3,4,5,6,7,8,9,10,11,12,13,14,15,16,17,18,19,20,21,22,23,24,25},
	{1,2,3,4,5,6,7,8,9,10,11,12,13,14,15,16,17,18,19,20,21,22,23,24,25},
	{1,2,3,4,5,6,7,8,9,10,11,12,13,14,15,16,17,18,19,20,21,22,23,24,25},
	{1,2,3,4,5,6,7,8,9,10,11,12,13,14,15,16,17,18,19,20,21,22,23,24,25},
	{1,2,3,4,5,6,7,8,9,10,11,12,13,14,15,16,17,18,19,20,21,22,23,24,25},
	{1,2,3,4,5,6,7,8,9,10,11,12,13,14,15,16,17,18,19,20,21,22,23,24,25},
	{1,2,3,4,5,6,7,8,9,10,11,12,13,14,15,16,17,18,19,20,21,22,23,24,25},
	{1,2,3,4,5,6,7,8,9,10,11,12,13,14,15,16,17,18,19,20,21,22,23,24,25},
	{1,2,3,4,5,6,7,8,9,10,11,12,13,14,15,16,17,18,19,20,21,22,23,24,25},
	{1,2,3,4,5,6,7,8,9,10,11,12,13,14,15,16,17,18,19,20,21,22,23,24,25},
	{1,2,3,4,5,6,7,8,9,10,11,12,13,14,15,16,17,18,19,20,21,22,23,24,25},
	{1,2,3,4,5,6,7,8,9,10,11,12,13,14,15,16,17,18,19,20,21,22,23,24,25},
	{1,2,3,4,5,6,7,8,9,10,11,12,13,14,15,16,17,18,19,20,21,22,23,24,25},
	{1,2,3,4,5,6,7,8,9,10,11,12,13,14,15,16,17,18,19,20,21,22,23,24,25},
	{1,2,3,4,5,6,7,8,9,10,11,12,13,14,15,16,17,18,19,20,21,22,23,24,25},
	{}];

POTENTIAL_ACT = [{2,3,4,5,6,7,8,9,10,11,12,13,14,15,16,17,18,19,20,21},
	{2,3,4,5,6,7,8,9,10,11,12,13,14,15,16,17,18,19,20,21},
	{2,3,4,5,6,7,8,9,10,11,12,13,14,15,16,17,18,19,20,21},
	{2,3,4,5,6,7,8,9,10,11,12,13,14,15,16,17,18,19,20,21},
	{2,3,4,5,6,7,8,9,10,11,12,13,14,15,16,17,18,19,20,21},
	{2,3,4,5,6,7,8,9,10,11,12,13,14,15,16,17,18,19,20,21},
	{2,3,4,5,6,7,8,9,10,11,12,13,14,15,16,17,18,19,20,21},
	{2,3,4,5,6,7,8,9,10,11,12,13,14,15,16,17,18,19,20,21},
	{2,3,4,5,6,7,8,9,10,11,12,13,14,15,16,17,18,19,20,21},
	{2,3,4,5,6,7,8,9,10,11,12,13,14,15,16,17,18,19,20,21},
	{2,3,4,5,6,7,8,9,10,11,12,13,14,15,16,17,18,19,20,21},
	{2,3,4,5,6,7,8,9,10,11,12,13,14,15,16,17,18,19,20,21},
	{2,3,4,5,6,7,8,9,10,11,12,13,14,15,16,17,18,19,20,21},
	{2,3,4,5,6,7,8,9,10,11,12,13,14,15,16,17,18,19,20,21},
	{2,3,4,5,6,7,8,9,10,11,12,13,14,15,16,17,18,19,20,21},
	{2,3,4,5,6,7,8,9,10,11,12,13,14,15,16,17,18,19,20,21},
	{2,3,4,5,6,7,8,9,10,11,12,13,14,15,16,17,18,19,20,21},
	{2,3,4,5,6,7,8,9,10,11,12,13,14,15,16,17,18,19,20,21},
	{2,3,4,5,6,7,8,9,10,11,12,13,14,15,16,17,18,19,20,21},
	{2,3,4,5,6,7,8,9,10,11,12,13,14,15,16,17,18,19,20,21},
	{2,3,4,5,6,7,8,9,10,11,12,13,14,15,16,17,18,19,20,21},
	{2,3,4,5,6,7,8,9,10,11,12,13,14,15,16,17,18,19,20,21},
	{2,3,4,5,6,7,8,9,10,11,12,13,14,15,16,17,18,19,20,21},
	{2,3,4,5,6,7,8,9,10,11,12,13,14,15,16,17,18,19,20,21},
	{2,3,4,5,6,7,8,9,10,11,12,13,14,15,16,17,18,19,20,21}];
